Version identifier: 22.1.0.0 | 2022-03-09 | 1a383f8ce
CPXPARAM_Read_DataCheck                          1
Tried aggregator 3 times.
MIP Presolve eliminated 1188 rows and 359 columns.
MIP Presolve modified 42 coefficients.
Aggregator did 869 substitutions.
Reduced MIP has 371 rows, 956 columns, and 2272 nonzeros.
Reduced MIP has 948 binaries, 8 generals, 0 SOSs, and 0 indicators.
Presolve time = 0.01 sec. (6.09 ticks)
Probing fixed 12 vars, tightened 0 bounds.
Probing changed sense of 1 constraints.
Probing time = 0.00 sec. (0.65 ticks)
Tried aggregator 2 times.
Detecting symmetries...
MIP Presolve eliminated 15 rows and 19 columns.
Aggregator did 3 substitutions.
Reduced MIP has 353 rows, 934 columns, and 2202 nonzeros.
Reduced MIP has 926 binaries, 8 generals, 0 SOSs, and 0 indicators.
Presolve time = 0.00 sec. (2.37 ticks)
Probing fixed 1 vars, tightened 0 bounds.
Probing time = 0.00 sec. (0.59 ticks)
Clique table members: 1421.
MIP emphasis: balance optimality and feasibility.
MIP search method: dynamic search.
Parallel mode: deterministic, using up to 8 threads.
Root relaxation solution time = 0.02 sec. (4.11 ticks)

        Nodes                                         Cuts/
   Node  Left     Objective  IInf  Best Integer    Best Bound    ItCnt     Gap

      0     0        8.4636   255                      8.4636      293         
      0     0       12.5000   198                    Cuts: 46      557         
*     0+    0                           13.0000       12.5000             3.85%
      0     0        cutoff             13.0000                    794    0.00%
Elapsed time = 0.20 sec. (97.07 ticks, tree = 0.01 MB, solutions = 1)

Clique cuts applied:  10
Zero-half cuts applied:  26
Lift and project cuts applied:  6
Gomory fractional cuts applied:  5

Root node processing (before b&c):
  Real time             =    0.20 sec. (97.15 ticks)
Parallel b&c, 8 threads:
  Real time             =    0.00 sec. (0.00 ticks)
  Sync time (average)   =    0.00 sec.
  Wait time (average)   =    0.00 sec.
                          ------------
Total (root+branch&cut) =    0.20 sec. (97.15 ticks)
